Version identifier: 20.1.0.0 | 2020-11-10 | 9bedb6d68
Tried aggregator 3 times.
MIP Presolve eliminated 856 rows and 467 columns.
MIP Presolve modified 1689 coefficients.
Aggregator did 97 substitutions.
Reduced MIP has 653 rows, 543 columns, and 2045 nonzeros.
Reduced MIP has 126 binaries, 417 generals, 0 SOSs, and 0 indicators.
Presolve time = 0.01 sec. (4.08 ticks)
Found incumbent of value 533.000000 after 0.02 sec. (5.92 ticks)
Probing fixed 18 vars, tightened 161 bounds.
Probing time = 0.00 sec. (0.62 ticks)
Tried aggregator 2 times.
MIP Presolve eliminated 264 rows and 56 columns.
MIP Presolve modified 56 coefficients.
Aggregator did 13 substitutions.
Reduced MIP has 376 rows, 474 columns, and 1174 nonzeros.
Reduced MIP has 195 binaries, 279 generals, 0 SOSs, and 0 indicators.
Presolve time = 0.00 sec. (1.46 ticks)
Probing time = 0.00 sec. (0.16 ticks)
Tried aggregator 1 time.
Detecting symmetries...
MIP Presolve modified 102 coefficients.
Reduced MIP has 376 rows, 474 columns, and 1174 nonzeros.
Reduced MIP has 199 binaries, 275 generals, 0 SOSs, and 0 indicators.
Presolve time = 0.00 sec. (0.92 ticks)
Probing time = 0.00 sec. (0.14 ticks)
Clique table members: 80.
MIP emphasis: balance optimality and feasibility.
MIP search method: dynamic search.
Parallel mode: deterministic, using up to 24 threads.
Root relaxation solution time = 0.00 sec. (1.31 ticks)

        Nodes                                         Cuts/
   Node  Left     Objective  IInf  Best Integer    Best Bound    ItCnt     Gap

*     0+    0                          533.0000        0.0000           100.00%
*     0+    0                           26.0000        0.0000           100.00%
      0     0        0.1818    56       26.0000        0.1818      161   99.30%
*     0+    0                           12.0000        0.1818            98.48%
      0     0        1.5898   138       12.0000      Cuts: 47      344   86.75%
      0     0        3.2000   135       12.0000      Cuts: 91      418   73.33%
      0     0        3.5000    94       12.0000      Cuts: 59      470   70.83%
      0     0        3.8000   155       12.0000      Cuts: 44      499   68.33%
      0     0        4.1333   107       12.0000      Cuts: 69      544   65.56%
      0     0        4.1333   138       12.0000      Cuts: 41      564   65.56%
      0     0        4.1333   118       12.0000      Cuts: 23      594   65.56%
      0     0        4.1333   130       12.0000      Cuts: 53      634   65.56%
*     0+    0                           11.0000        4.1333            62.42%
*     0+    0                           10.0000        4.1333            58.67%
*     0+    0                            8.0000        4.1333            48.33%
      0     0        cutoff              8.0000        8.0000      634    0.00%
Elapsed time = 0.32 sec. (60.74 ticks, tree = 0.01 MB, solutions = 6)

Clique cuts applied:  4
Implied bound cuts applied:  12
Flow cuts applied:  4
Mixed integer rounding cuts applied:  5
Zero-half cuts applied:  29
Lift and project cuts applied:  1
Gomory fractional cuts applied:  2

Root node processing (before b&c):
  Real time             =    0.32 sec. (60.82 ticks)
Parallel b&c, 24 threads:
  Real time             =    0.00 sec. (0.00 ticks)
  Sync time (average)   =    0.00 sec.
  Wait time (average)   =    0.00 sec.
                          ------------
Total (root+branch&cut) =    0.32 sec. (60.82 ticks)

Solution status = Optimal
Solution LB = 8
Solution UB = 8
Runtime = 0.331875 seconds
	Command being timed: "/home/min/git_repos/CS598MEBProject/CNT-ILP/build/cnt -s 2 ./output/k6_n20/simC_c1_k6_n20_u3_s2_del04.input-left.cnp"
	User time (seconds): 5.54
	System time (seconds): 0.03
	Percent of CPU this job got: 1525%
	Elapsed (wall clock) time (h:mm:ss or m:ss): 0:00.36
	Average shared text size (kbytes): 0
	Average unshared data size (kbytes): 0
	Average stack size (kbytes): 0
	Average total size (kbytes): 0
	Maximum resident set size (kbytes): 57248
	Average resident set size (kbytes): 0
	Major (requiring I/O) page faults: 0
	Minor (reclaiming a frame) page faults: 11432
	Voluntary context switches: 2392
	Involuntary context switches: 671
	Swaps: 0
	File system inputs: 0
	File system outputs: 16
	Socket messages sent: 0
	Socket messages received: 0
	Signals delivered: 0
	Page size (bytes): 4096
	Exit status: 0
